(set-logic QF_NIA)
(set-info :source |
     Constraint systems stating that a matrix interpretation is
     compatible with a rewriting system (weakly compatible with
     all rules, strictly compatible with at least one).

     Contributed by Johannes Waldmann at HTKW Leipzig.
   |)
(set-info :smt-lib-version 2.0)
(set-info :category "crafted")
(set-info :status sat)
(declare-fun n0 () Int)
(assert (>= n0 0))
(declare-fun n1 () Int)
(assert (>= n1 0))
(declare-fun n2 () Int)
(assert (>= n2 0))
(declare-fun n3 () Int)
(assert (>= n3 0))
(declare-fun n4 () Int)
(assert (>= n4 0))
(declare-fun n5 () Int)
(assert (>= n5 0))
(declare-fun n6 () Int)
(assert (>= n6 0))
(declare-fun n7 () Int)
(assert (>= n7 0))
(declare-fun n8 () Int)
(assert (= n8 (* n5 n4)))
(declare-fun n9 () Int)
(assert (= n9 (+ n4 n8)))
(declare-fun n10 () Int)
(assert (= n10 (* n5 n5)))
(declare-fun n11 () Int)
(assert (= n11 (* n10 n6)))
(declare-fun n12 () Int)
(assert (= n12 (+ n9 n11)))
(declare-fun n13 () Int)
(assert (= n13 (* n10 n7)))
(declare-fun n14 () Int)
(assert (= n14 (* n10 n4)))
(declare-fun n15 () Int)
(assert (= n15 (+ n9 n14)))
(declare-fun n16 () Int)
(assert (= n16 (* n10 n5)))
(declare-fun n17 () Int)
(assert (= n17 (* n1 n15)))
(declare-fun n18 () Int)
(assert (= n18 (+ n0 n17)))
(declare-fun n19 () Int)
(assert (= n19 (* n1 n16)))
(declare-fun n20 () Int)
(assert (= n20 (* n3 n12)))
(declare-fun n21 () Int)
(assert (= n21 (+ n2 n20)))
(declare-fun n22 () Int)
(assert (= n22 (* n3 n13)))
(declare-fun n23 () Int)
(assert (= n23 (* n5 n6)))
(declare-fun n24 () Int)
(assert (= n24 (+ n4 n23)))
(declare-fun n25 () Int)
(assert (= n25 (* n5 n7)))
(declare-fun n26 () Int)
(assert (= n26 (* n1 n6)))
(declare-fun n27 () Int)
(assert (= n27 (+ n0 n26)))
(declare-fun n28 () Int)
(assert (= n28 (* n1 n7)))
(declare-fun n29 () Int)
(assert (= n29 (* n1 n24)))
(declare-fun n30 () Int)
(assert (= n30 (+ n0 n29)))
(declare-fun n31 () Int)
(assert (= n31 (* n1 n25)))
(declare-fun n32 () Int)
(assert (= n32 (* n31 n6)))
(declare-fun n33 () Int)
(assert (= n33 (+ n30 n32)))
(declare-fun n34 () Int)
(assert (= n34 (* n31 n7)))
(assert (>= n18 n33))
(assert (>= n19 n34))
(declare-fun n35 () Int)
(assert (= n35 (* n28 n6)))
(declare-fun n36 () Int)
(assert (= n36 (+ n27 n35)))
(declare-fun n37 () Int)
(assert (= n37 (* n28 n7)))
(assert (>= n18 n36))
(assert (>= n19 n37))
(declare-fun n38 () Int)
(assert (= n38 (* n3 n6)))
(declare-fun n39 () Int)
(assert (= n39 (+ n2 n38)))
(declare-fun n40 () Int)
(assert (= n40 (* n3 n7)))
(assert (>= n18 n39))
(assert (>= n19 n40))
(assert (>= n18 n2))
(assert (>= n19 n3))
(declare-fun n41 () Int)
(assert (= n41 (* n31 n4)))
(declare-fun n42 () Int)
(assert (= n42 (+ n30 n41)))
(declare-fun n43 () Int)
(assert (= n43 (* n31 n5)))
(assert (>= n21 n42))
(assert (>= n22 n43))
(declare-fun n44 () Int)
(assert (= n44 (* n28 n4)))
(declare-fun n45 () Int)
(assert (= n45 (+ n27 n44)))
(declare-fun n46 () Int)
(assert (= n46 (* n28 n5)))
(assert (>= n21 n45))
(assert (>= n22 n46))
(declare-fun n47 () Int)
(assert (= n47 (* n3 n4)))
(declare-fun n48 () Int)
(assert (= n48 (+ n2 n47)))
(declare-fun n49 () Int)
(assert (= n49 (* n3 n5)))
(assert (>= n21 n48))
(assert (>= n22 n49))
(assert (>= n21 n0))
(assert (>= n22 n1))
(declare-fun n50 () Int)
(assert (= n50 (* n10 n9)))
(declare-fun n51 () Int)
(assert (= n51 (+ n9 n50)))
(declare-fun n52 () Int)
(assert (= n52 (* n10 n10)))
(declare-fun n53 () Int)
(assert (= n53 (* n13 n6)))
(declare-fun n54 () Int)
(assert (= n54 (+ n12 n53)))
(declare-fun n55 () Int)
(assert (= n55 (* n13 n7)))
(assert (>= n51 n54))
(assert (>= n52 n55))
(declare-fun n56 () Int)
(assert (= n56 (* n7 n12)))
(declare-fun n57 () Int)
(assert (= n57 (+ n6 n56)))
(declare-fun n58 () Int)
(assert (= n58 (* n7 n13)))
(declare-fun n59 () Int)
(assert (= n59 (* n13 n4)))
(declare-fun n60 () Int)
(assert (= n60 (+ n12 n59)))
(declare-fun n61 () Int)
(assert (= n61 (* n13 n5)))
(assert (>= n57 n60))
(assert (>= n58 n61))
(assert (or (> n18 n33) (> n18 n36) (> n18 n39) (> n18 n2) (> n21 n42) (> n21 n45) (> n21 n48) (> n21 n0)))
(check-sat)
(exit)
